\ Model mip1
\ LP format - for model browsing. Use MPS format to capture full model detail.
Minimize
  0.4450111756407325 f(x_0) + 0.5920217114224644 f(x_1)
   + 0.6552901006250196 f(x_2) + 0.3999046577563154 f(x_3)
   + 0.5718481165821372 f(x_4) + 0.3702512508835671 f(x_5)
   + 0.5308228710979541 f(x_6) + 0.7366670963957643 f(x_7)
   + 0.6751804061059188 f(x_8) + 0.3242505662566069 f(x_9)
   + 0.7158990332397965 f(x_10) + 0.5921121912424192 f(x_11)
   + 0.5820648629655287 f(x_12) + 0.7071696533368015 f(x_13)
   + 0.2597216479949508 f(x_14) + 0.417125938500317 f(x_15)
   + 0.5411451726189866 f(x_16) + 0.5417497400400425 f(x_17)
   + 0.7277555923757608 f(x_18) + 0.7376891856663093 f(x_19)
   + 0.5970285826627348 f(x_20) + 0.6760115971002401 f(x_21)
   + 0.508017192041369 f(x_22) + 0.742016082266586 f(x_23)
   + 0.7058564737262787 f(x_24) + 0.5314669114363852 f(x_25)
   + 0.3705597134619769 f(x_26) + 0.6877934102336976 f(x_27)
   + 0.6717188624431505 f(x_28) + 0.4283817405327347 f(x_29)
   + 0.4227128239247518 f(x_30) + 0.5603358752731724 f(x_31)
   + 0.4557852134613023 f(x_32) + 0.322599573276707 f(x_33)
   + 0.7011849880150627 f(x_34) + 0.6227027781030805 f(x_35)
   + 0.3366711825539589 f(x_36) + 0.6039299116445667 f(x_37)
   + 0.3495219243383424 f(x_38) + 0.6914603669160961 f(x_39)
   + 0.4910104264973507 f(x_40) + 0.7211591397953646 f(x_41)
   + 0.3924346479799703 f(x_42) + 0.4093777524500546 f(x_43)
   + 0.4810753636849991 f(x_44) + 0.4924991796498774 f(x_45)
   + 0.2539498146005812 f(x_46) + 0.5271180460718863 f(x_47)
   + 0.2967785479922008 f(x_48) + 0.4178615849625413 f(x_49)
   + 0.4990004857869084 f(x_50) + 0.550280449272717 f(x_51)
   + 0.501133081897613 f(x_52) + 0.4627090349538489 f(x_53)
   + 0.6004667961497656 f(x_54) + 0.3171165713478669 f(x_55)
   + 0.7116637836971569 f(x_56) + 0.669465959047147 f(x_57)
   + 0.5023544928644943 f(x_58) + 0.3007759064376014 f(x_59)
   + 0.5160587777154424 f(x_60) + 0.3640192561003476 f(x_61)
   + 0.3989913373251778 f(x_62) + 0.3954662527014868 f(x_63)
   + 0.7375801116697904 f(x_64) + 0.7114905500546376 f(x_65)
   + 0.6910178078282078 f(x_66) + 0.391021856742445 f(x_67)
   + 0.5168442609795645 f(x_68) + 0.5943265028371618 f(x_69)
   + 0.50112239273064 f(x_70) + 0.4628245066933732 f(x_71)
   + 0.3274697833017148 f(x_72) + 0.5042382845261919 f(x_73)
   + 0.6932204629141794 f(x_74) + 0.6840143391343502 f(x_75)
   + 0.5880805417154062 f(x_76) + 0.4701171536128737 f(x_77)
   + 0.4170186386478902 f(x_78) + 0.641297636618252 f(x_79)
   + 0.6334543819067726 f(x_80) + 0.3562819265104168 f(x_81)
   + 0.6265516059327396 f(x_82) + 0.4272326001913798 f(x_83)
   + 0.4041241358509164 f(x_84) + 0.4648324654836657 f(x_85)
   + 0.5064080004768938 f(x_86) + 0.4743500910891168 f(x_87)
   + 0.5383961748152157 f(x_88) + 0.577077310960736 f(x_89)
   + 0.3571029504256329 f(x_90) + 0.5774122277289157 f(x_91)
   + 0.4769692178531367 f(x_92) + 0.35632699885853 f(x_93)
   + 0.4854774311887377 f(x_94) + 0.3385402193918255 f(x_95)
   + 0.6560960200794106 f(x_96) + 0.4662214146929892 f(x_97)
   + 0.3939706240425618 f(x_98) + 0.6652708747060045 f(x_99)
Subject To
 R0: x_0 + x_1 + x_2 + x_3 + x_4 + x_5 + x_6 + x_7 + x_8 + x_9 + x_10
   + x_11 + x_12 + x_13 + x_14 + x_15 + x_16 + x_17 + x_18 + x_19 + x_20
   + x_21 + x_22 + x_23 + x_24 + x_25 + x_26 + x_27 + x_28 + x_29 + x_30
   + x_31 + x_32 + x_33 + x_34 + x_35 + x_36 + x_37 + x_38 + x_39 + x_40
   + x_41 + x_42 + x_43 + x_44 + x_45 + x_46 + x_47 + x_48 + x_49 + x_50
   + x_51 + x_52 + x_53 + x_54 + x_55 + x_56 + x_57 + x_58 + x_59 + x_60
   + x_61 + x_62 + x_63 + x_64 + x_65 + x_66 + x_67 + x_68 + x_69 + x_70
   + x_71 + x_72 + x_73 + x_74 + x_75 + x_76 + x_77 + x_78 + x_79 + x_80
   + x_81 + x_82 + x_83 + x_84 + x_85 + x_86 + x_87 + x_88 + x_89 + x_90
   + x_91 + x_92 + x_93 + x_94 + x_95 + x_96 + x_97 + x_98 + x_99 = 5
Bounds
 x_0 <= 5
 x_1 <= 5
 x_2 <= 5
 x_3 <= 5
 x_4 <= 5
 x_5 <= 5
 x_6 <= 5
 x_7 <= 5
 x_8 <= 5
 x_9 <= 5
 x_10 <= 5
 x_11 <= 5
 x_12 <= 5
 x_13 <= 5
 x_14 <= 5
 x_15 <= 5
 x_16 <= 5
 x_17 <= 5
 x_18 <= 5
 x_19 <= 5
 x_20 <= 5
 x_21 <= 5
 x_22 <= 5
 x_23 <= 5
 x_24 <= 5
 x_25 <= 5
 x_26 <= 5
 x_27 <= 5
 x_28 <= 5
 x_29 <= 5
 x_30 <= 5
 x_31 <= 5
 x_32 <= 5
 x_33 <= 5
 x_34 <= 5
 x_35 <= 5
 x_36 <= 5
 x_37 <= 5
 x_38 <= 5
 x_39 <= 5
 x_40 <= 5
 x_41 <= 5
 x_42 <= 5
 x_43 <= 5
 x_44 <= 5
 x_45 <= 5
 x_46 <= 5
 x_47 <= 5
 x_48 <= 5
 x_49 <= 5
 x_50 <= 5
 x_51 <= 5
 x_52 <= 5
 x_53 <= 5
 x_54 <= 5
 x_55 <= 5
 x_56 <= 5
 x_57 <= 5
 x_58 <= 5
 x_59 <= 5
 x_60 <= 5
 x_61 <= 5
 x_62 <= 5
 x_63 <= 5
 x_64 <= 5
 x_65 <= 5
 x_66 <= 5
 x_67 <= 5
 x_68 <= 5
 x_69 <= 5
 x_70 <= 5
 x_71 <= 5
 x_72 <= 5
 x_73 <= 5
 x_74 <= 5
 x_75 <= 5
 x_76 <= 5
 x_77 <= 5
 x_78 <= 5
 x_79 <= 5
 x_80 <= 5
 x_81 <= 5
 x_82 <= 5
 x_83 <= 5
 x_84 <= 5
 x_85 <= 5
 x_86 <= 5
 x_87 <= 5
 x_88 <= 5
 x_89 <= 5
 x_90 <= 5
 x_91 <= 5
 x_92 <= 5
 x_93 <= 5
 x_94 <= 5
 x_95 <= 5
 x_96 <= 5
 x_97 <= 5
 x_98 <= 5
 x_99 <= 5
Generals
 x_0 x_1 x_2 x_3 x_4 x_5 x_6 x_7 x_8 x_9 x_10 x_11 x_12 x_13 x_14 x_15 x_16
 x_17 x_18 x_19 x_20 x_21 x_22 x_23 x_24 x_25 x_26 x_27 x_28 x_29 x_30 x_31
 x_32 x_33 x_34 x_35 x_36 x_37 x_38 x_39 x_40 x_41 x_42 x_43 x_44 x_45 x_46
 x_47 x_48 x_49 x_50 x_51 x_52 x_53 x_54 x_55 x_56 x_57 x_58 x_59 x_60 x_61
 x_62 x_63 x_64 x_65 x_66 x_67 x_68 x_69 x_70 x_71 x_72 x_73 x_74 x_75 x_76
 x_77 x_78 x_79 x_80 x_81 x_82 x_83 x_84 x_85 x_86 x_87 x_88 x_89 x_90 x_91
 x_92 x_93 x_94 x_95 x_96 x_97 x_98 x_99
General Constraints
 constr_x_0: f(x_0) = POW ( x_0 ^ 0.9090909090909091 )
 constr_x_1: f(x_1) = POW ( x_1 ^ 0.9090909090909091 )
 constr_x_2: f(x_2) = POW ( x_2 ^ 0.9090909090909091 )
 constr_x_3: f(x_3) = POW ( x_3 ^ 0.9090909090909091 )
 constr_x_4: f(x_4) = POW ( x_4 ^ 0.9090909090909091 )
 constr_x_5: f(x_5) = POW ( x_5 ^ 0.9090909090909091 )
 constr_x_6: f(x_6) = POW ( x_6 ^ 0.9090909090909091 )
 constr_x_7: f(x_7) = POW ( x_7 ^ 0.9090909090909091 )
 constr_x_8: f(x_8) = POW ( x_8 ^ 0.9090909090909091 )
 constr_x_9: f(x_9) = POW ( x_9 ^ 0.9090909090909091 )
 constr_x_10: f(x_10) = POW ( x_10 ^ 0.9090909090909091 )
 constr_x_11: f(x_11) = POW ( x_11 ^ 0.9090909090909091 )
 constr_x_12: f(x_12) = POW ( x_12 ^ 0.9090909090909091 )
 constr_x_13: f(x_13) = POW ( x_13 ^ 0.9090909090909091 )
 constr_x_14: f(x_14) = POW ( x_14 ^ 0.9090909090909091 )
 constr_x_15: f(x_15) = POW ( x_15 ^ 0.9090909090909091 )
 constr_x_16: f(x_16) = POW ( x_16 ^ 0.9090909090909091 )
 constr_x_17: f(x_17) = POW ( x_17 ^ 0.9090909090909091 )
 constr_x_18: f(x_18) = POW ( x_18 ^ 0.9090909090909091 )
 constr_x_19: f(x_19) = POW ( x_19 ^ 0.9090909090909091 )
 constr_x_20: f(x_20) = POW ( x_20 ^ 0.9090909090909091 )
 constr_x_21: f(x_21) = POW ( x_21 ^ 0.9090909090909091 )
 constr_x_22: f(x_22) = POW ( x_22 ^ 0.9090909090909091 )
 constr_x_23: f(x_23) = POW ( x_23 ^ 0.9090909090909091 )
 constr_x_24: f(x_24) = POW ( x_24 ^ 0.9090909090909091 )
 constr_x_25: f(x_25) = POW ( x_25 ^ 0.9090909090909091 )
 constr_x_26: f(x_26) = POW ( x_26 ^ 0.9090909090909091 )
 constr_x_27: f(x_27) = POW ( x_27 ^ 0.9090909090909091 )
 constr_x_28: f(x_28) = POW ( x_28 ^ 0.9090909090909091 )
 constr_x_29: f(x_29) = POW ( x_29 ^ 0.9090909090909091 )
 constr_x_30: f(x_30) = POW ( x_30 ^ 0.9090909090909091 )
 constr_x_31: f(x_31) = POW ( x_31 ^ 0.9090909090909091 )
 constr_x_32: f(x_32) = POW ( x_32 ^ 0.9090909090909091 )
 constr_x_33: f(x_33) = POW ( x_33 ^ 0.9090909090909091 )
 constr_x_34: f(x_34) = POW ( x_34 ^ 0.9090909090909091 )
 constr_x_35: f(x_35) = POW ( x_35 ^ 0.9090909090909091 )
 constr_x_36: f(x_36) = POW ( x_36 ^ 0.9090909090909091 )
 constr_x_37: f(x_37) = POW ( x_37 ^ 0.9090909090909091 )
 constr_x_38: f(x_38) = POW ( x_38 ^ 0.9090909090909091 )
 constr_x_39: f(x_39) = POW ( x_39 ^ 0.9090909090909091 )
 constr_x_40: f(x_40) = POW ( x_40 ^ 0.9090909090909091 )
 constr_x_41: f(x_41) = POW ( x_41 ^ 0.9090909090909091 )
 constr_x_42: f(x_42) = POW ( x_42 ^ 0.9090909090909091 )
 constr_x_43: f(x_43) = POW ( x_43 ^ 0.9090909090909091 )
 constr_x_44: f(x_44) = POW ( x_44 ^ 0.9090909090909091 )
 constr_x_45: f(x_45) = POW ( x_45 ^ 0.9090909090909091 )
 constr_x_46: f(x_46) = POW ( x_46 ^ 0.9090909090909091 )
 constr_x_47: f(x_47) = POW ( x_47 ^ 0.9090909090909091 )
 constr_x_48: f(x_48) = POW ( x_48 ^ 0.9090909090909091 )
 constr_x_49: f(x_49) = POW ( x_49 ^ 0.9090909090909091 )
 constr_x_50: f(x_50) = POW ( x_50 ^ 0.9090909090909091 )
 constr_x_51: f(x_51) = POW ( x_51 ^ 0.9090909090909091 )
 constr_x_52: f(x_52) = POW ( x_52 ^ 0.9090909090909091 )
 constr_x_53: f(x_53) = POW ( x_53 ^ 0.9090909090909091 )
 constr_x_54: f(x_54) = POW ( x_54 ^ 0.9090909090909091 )
 constr_x_55: f(x_55) = POW ( x_55 ^ 0.9090909090909091 )
 constr_x_56: f(x_56) = POW ( x_56 ^ 0.9090909090909091 )
 constr_x_57: f(x_57) = POW ( x_57 ^ 0.9090909090909091 )
 constr_x_58: f(x_58) = POW ( x_58 ^ 0.9090909090909091 )
 constr_x_59: f(x_59) = POW ( x_59 ^ 0.9090909090909091 )
 constr_x_60: f(x_60) = POW ( x_60 ^ 0.9090909090909091 )
 constr_x_61: f(x_61) = POW ( x_61 ^ 0.9090909090909091 )
 constr_x_62: f(x_62) = POW ( x_62 ^ 0.9090909090909091 )
 constr_x_63: f(x_63) = POW ( x_63 ^ 0.9090909090909091 )
 constr_x_64: f(x_64) = POW ( x_64 ^ 0.9090909090909091 )
 constr_x_65: f(x_65) = POW ( x_65 ^ 0.9090909090909091 )
 constr_x_66: f(x_66) = POW ( x_66 ^ 0.9090909090909091 )
 constr_x_67: f(x_67) = POW ( x_67 ^ 0.9090909090909091 )
 constr_x_68: f(x_68) = POW ( x_68 ^ 0.9090909090909091 )
 constr_x_69: f(x_69) = POW ( x_69 ^ 0.9090909090909091 )
 constr_x_70: f(x_70) = POW ( x_70 ^ 0.9090909090909091 )
 constr_x_71: f(x_71) = POW ( x_71 ^ 0.9090909090909091 )
 constr_x_72: f(x_72) = POW ( x_72 ^ 0.9090909090909091 )
 constr_x_73: f(x_73) = POW ( x_73 ^ 0.9090909090909091 )
 constr_x_74: f(x_74) = POW ( x_74 ^ 0.9090909090909091 )
 constr_x_75: f(x_75) = POW ( x_75 ^ 0.9090909090909091 )
 constr_x_76: f(x_76) = POW ( x_76 ^ 0.9090909090909091 )
 constr_x_77: f(x_77) = POW ( x_77 ^ 0.9090909090909091 )
 constr_x_78: f(x_78) = POW ( x_78 ^ 0.9090909090909091 )
 constr_x_79: f(x_79) = POW ( x_79 ^ 0.9090909090909091 )
 constr_x_80: f(x_80) = POW ( x_80 ^ 0.9090909090909091 )
 constr_x_81: f(x_81) = POW ( x_81 ^ 0.9090909090909091 )
 constr_x_82: f(x_82) = POW ( x_82 ^ 0.9090909090909091 )
 constr_x_83: f(x_83) = POW ( x_83 ^ 0.9090909090909091 )
 constr_x_84: f(x_84) = POW ( x_84 ^ 0.9090909090909091 )
 constr_x_85: f(x_85) = POW ( x_85 ^ 0.9090909090909091 )
 constr_x_86: f(x_86) = POW ( x_86 ^ 0.9090909090909091 )
 constr_x_87: f(x_87) = POW ( x_87 ^ 0.9090909090909091 )
 constr_x_88: f(x_88) = POW ( x_88 ^ 0.9090909090909091 )
 constr_x_89: f(x_89) = POW ( x_89 ^ 0.9090909090909091 )
 constr_x_90: f(x_90) = POW ( x_90 ^ 0.9090909090909091 )
 constr_x_91: f(x_91) = POW ( x_91 ^ 0.9090909090909091 )
 constr_x_92: f(x_92) = POW ( x_92 ^ 0.9090909090909091 )
 constr_x_93: f(x_93) = POW ( x_93 ^ 0.9090909090909091 )
 constr_x_94: f(x_94) = POW ( x_94 ^ 0.9090909090909091 )
 constr_x_95: f(x_95) = POW ( x_95 ^ 0.9090909090909091 )
 constr_x_96: f(x_96) = POW ( x_96 ^ 0.9090909090909091 )
 constr_x_97: f(x_97) = POW ( x_97 ^ 0.9090909090909091 )
 constr_x_98: f(x_98) = POW ( x_98 ^ 0.9090909090909091 )
 constr_x_99: f(x_99) = POW ( x_99 ^ 0.9090909090909091 )
End
